(set-logic QF_S)
(declare-fun var0 () String)
(assert (str.in.re var0 (re.++ (re.union (re.* (str.to.re "000")) (re.* (str.to.re "11"))) (re.++ (re.+ (re.* (str.to.re "22"))) (re.++ (re.union (re.* (str.to.re "3")) (re.* (str.to.re "4"))) (re.++ (re.* (re.+ (str.to.re "555"))) (re.++ (re.+ (re.+ (str.to.re "66"))) (re.++ (re.+ (re.union (str.to.re "777") (str.to.re "88"))) (re.++ (re.union (re.union (str.to.re "99") (str.to.re "a")) (re.union (str.to.re "bbb") (str.to.re "ccc"))) (re.++ (re.+ (re.* (str.to.re "d"))) (re.++ (re.union (re.* (str.to.re "ee")) (re.* (str.to.re "ff"))) (re.++ (re.* (re.+ (str.to.re "gg"))) (re.++ (re.+ (re.+ (str.to.re "h"))) (re.++ (re.union (re.+ (str.to.re "ii")) (re.+ (str.to.re "j"))) (re.++ (re.union (re.* (str.to.re "k")) (re.* (str.to.re "lll"))) (re.++ (re.union (re.union (str.to.re "m") (str.to.re "n")) (re.union (str.to.re "oo") (str.to.re "pp"))) (re.++ (re.union (re.union (str.to.re "q") (str.to.re "r")) (re.union (str.to.re "s") (str.to.re "tt"))) (re.++ (re.+ (re.* (str.to.re "uu"))) (re.++ (re.union (re.union (str.to.re "vvv") (str.to.re "www")) (re.union (str.to.re "x") (str.to.re "yy"))) (re.++ (re.union (re.* (str.to.re "z")) (re.* (str.to.re "A"))) (re.++ (re.union (re.* (str.to.re "BBB")) (re.* (str.to.re "C"))) (re.++ (re.+ (re.+ (str.to.re "DD"))) (re.++ (re.* (re.* (str.to.re "EE"))) (re.++ (re.* (re.union (str.to.re "F") (str.to.re "G"))) (re.++ (re.union (re.+ (str.to.re "HH")) (re.+ (str.to.re "III"))) (re.++ (re.+ (re.+ (str.to.re "J"))) (re.++ (re.* (re.+ (str.to.re "KKK"))) (re.++ (re.+ (re.* (str.to.re "L"))) (re.++ (re.* (re.union (str.to.re "MMM") (str.to.re "NNN"))) (re.++ (re.+ (re.* (str.to.re "OOO"))) (re.++ (re.* (re.* (str.to.re "P"))) (re.++ (re.union (re.union (str.to.re "QQQ") (str.to.re "RRR")) (re.union (str.to.re "S") (str.to.re "T"))) (re.++ (re.+ (re.+ (str.to.re "U"))) (re.++ (re.union (re.* (str.to.re "VV")) (re.* (str.to.re "WW"))) (re.++ (re.* (re.* (str.to.re "XXX"))) (re.++ (re.+ (re.* (str.to.re "YY"))) (re.++ (re.+ (re.+ (str.to.re "Z"))) (re.++ (re.+ (re.* (str.to.re "!!!"))) (re.++ (re.+ (re.+ (str.to.re """"""))) (re.++ (re.union (re.+ (str.to.re "##")) (re.+ (str.to.re "$$$"))) (re.++ (re.* (re.union (str.to.re "%%") (str.to.re "&&&"))) (re.++ (re.union (re.* (str.to.re "'''")) (re.* (str.to.re "((("))) (re.++ (re.+ (re.* (str.to.re "))"))) (re.++ (re.union (re.+ (str.to.re "**")) (re.+ (str.to.re "+"))) (re.++ (re.union (re.* (str.to.re ",,")) (re.* (str.to.re "---"))) (re.++ (re.* (re.union (str.to.re ".") (str.to.re "///"))) (re.++ (re.+ (re.union (str.to.re ":::") (str.to.re ";;;"))) (re.++ (re.+ (re.* (str.to.re "<<<"))) (re.++ (re.* (re.* (str.to.re "="))) (re.++ (re.union (re.union (str.to.re ">>>") (str.to.re "??")) (re.union (str.to.re "@@@") (str.to.re "[["))) (re.++ (re.union (re.union (str.to.re "\\\\") (str.to.re "]")) (re.union (str.to.re "^") (str.to.re "___"))) (re.++ (re.+ (re.+ (str.to.re "``"))) (re.++ (re.union (re.+ (str.to.re "{{{")) (re.+ (str.to.re "||"))) (re.++ (re.* (re.+ (str.to.re "}}"))) (re.++ (re.+ (re.* (str.to.re "~~"))) (re.++ (re.union (re.union (str.to.re "0") (str.to.re "111")) (re.union (str.to.re "2") (str.to.re "333"))) (re.++ (re.* (re.union (str.to.re "444") (str.to.re "555"))) (re.+ (re.+ (str.to.re "66"))))))))))))))))))))))))))))))))))))))))))))))))))))))))))))
(assert (not (str.in.re var0 (re.++ (re.+ (re.union (str.to.re "0") (str.to.re "11"))) (re.++ (re.union (re.* (str.to.re "2")) (re.* (str.to.re "333"))) (re.++ (re.+ (re.+ (str.to.re "444"))) (re.++ (re.* (re.* (str.to.re "555"))) (re.++ (re.+ (re.union (str.to.re "6") (str.to.re "7"))) (re.++ (re.* (re.union (str.to.re "88") (str.to.re "999"))) (re.++ (re.* (re.+ (str.to.re "a"))) (re.++ (re.* (re.union (str.to.re "bbb") (str.to.re "c"))) (re.++ (re.union (re.union (str.to.re "d") (str.to.re "e")) (re.union (str.to.re "f") (str.to.re "g"))) (re.++ (re.+ (re.+ (str.to.re "hh"))) (re.++ (re.* (re.* (str.to.re "ii"))) (re.++ (re.union (re.union (str.to.re "jjj") (str.to.re "kkk")) (re.union (str.to.re "l") (str.to.re "mmm"))) (re.++ (re.* (re.union (str.to.re "nn") (str.to.re "o"))) (re.++ (re.+ (re.* (str.to.re "ppp"))) (re.++ (re.* (re.+ (str.to.re "qq"))) (re.++ (re.+ (re.* (str.to.re "rrr"))) (re.++ (re.+ (re.* (str.to.re "s"))) (re.++ (re.* (re.* (str.to.re "t"))) (re.++ (re.union (re.* (str.to.re "uu")) (re.* (str.to.re "v"))) (re.++ (re.* (re.* (str.to.re "ww"))) (re.++ (re.* (re.* (str.to.re "xx"))) (re.++ (re.+ (re.* (str.to.re "y"))) (re.++ (re.+ (re.union (str.to.re "zz") (str.to.re "A"))) (re.++ (re.* (re.+ (str.to.re "BBB"))) (re.++ (re.union (re.union (str.to.re "C") (str.to.re "D")) (re.union (str.to.re "E") (str.to.re "FF"))) (re.++ (re.* (re.+ (str.to.re "GGG"))) (re.++ (re.union (re.union (str.to.re "H") (str.to.re "I")) (re.union (str.to.re "JJJ") (str.to.re "K"))) (re.++ (re.+ (re.union (str.to.re "L") (str.to.re "MMM"))) (re.++ (re.+ (re.* (str.to.re "N"))) (re.++ (re.* (re.* (str.to.re "OOO"))) (re.++ (re.+ (re.* (str.to.re "PPP"))) (re.++ (re.* (re.+ (str.to.re "QQQ"))) (re.++ (re.union (re.* (str.to.re "RR")) (re.* (str.to.re "SSS"))) (re.++ (re.* (re.* (str.to.re "TT"))) (re.++ (re.* (re.* (str.to.re "U"))) (re.++ (re.* (re.* (str.to.re "VVV"))) (re.++ (re.union (re.* (str.to.re "WW")) (re.* (str.to.re "XX"))) (re.++ (re.+ (re.* (str.to.re "YYY"))) (re.++ (re.+ (re.+ (str.to.re "ZZ"))) (re.++ (re.* (re.* (str.to.re "!!!"))) (re.++ (re.* (re.union (str.to.re """""""") (str.to.re "###"))) (re.++ (re.* (re.union (str.to.re "$$$") (str.to.re "%"))) (re.++ (re.union (re.* (str.to.re "&")) (re.* (str.to.re "''"))) (re.++ (re.+ (re.* (str.to.re "("))) (re.++ (re.+ (re.* (str.to.re ")))"))) (re.++ (re.* (re.* (str.to.re "**"))) (re.++ (re.* (re.union (str.to.re "+++") (str.to.re ",,"))) (re.++ (re.* (re.union (str.to.re "-") (str.to.re ".."))) (re.++ (re.+ (re.+ (str.to.re "//"))) (re.++ (re.union (re.union (str.to.re ":::") (str.to.re ";;;")) (re.union (str.to.re "<<") (str.to.re "==="))) (re.++ (re.union (re.* (str.to.re ">")) (re.* (str.to.re "???"))) (re.++ (re.union (re.union (str.to.re "@@") (str.to.re "[")) (re.union (str.to.re "\\\\\\") (str.to.re "]"))) (re.++ (re.union (re.* (str.to.re "^^")) (re.* (str.to.re "___"))) (re.++ (re.+ (re.+ (str.to.re "```"))) (re.++ (re.+ (re.union (str.to.re "{{") (str.to.re "|"))) (re.* (re.+ (str.to.re "}}")))))))))))))))))))))))))))))))))))))))))))))))))))))))))))))
(check-sat)